(declare-const x0 Bool)
(declare-const x1 Bool)
(declare-const x2 Bool)
(declare-const x3 Bool)
(declare-const x4 Bool)
(declare-const x5 Bool)
(declare-const x6 Bool)
(declare-const x7 Bool)
(declare-const x8 Bool)
(declare-const x9 Bool)
(assert (or (or (= x9 x2) (= true x3)) (= (or (or x7 x4) x0) (and true x6))))
(assert (= (or (and x4 (= x0 false)) x4) x2))
(assert (or (or false false) (= (or x5 x5) (or false x5))))
(assert (and (= x1 (= true false)) (or (or (= true x9) x6) (and false x1))))
(assert (or (and true x6) (and x9 true)))
(assert (= (or (or x0 true) (= x4 true)) (= (or x1 (= (or false x2) (or false true))) x6)))
(assert (and true (= x0 (or true x8))))
(assert (or (and x4 (= (and x8 x9) (and true x7))) (= false x8)))
(assert (= x8 true))
(assert (or (or (or false (and false x3)) (and true x1)) false))
(check-sat)
